25 100
  0     35.0     35.0       0.0      230.0      0.0       0.0       0.0  
  1     41.0     49.0       0.0      204.0     10.0       2.0      10.0  
  2     35.0     17.0       0.0      202.0     10.0      11.0       7.0  
  3     55.0     45.0       0.0      197.0     10.0      18.0      13.0  
  4     55.0     20.0      149.0     159.0     10.0      19.0      19.0  
  5     15.0     30.0       0.0      199.0     10.0      20.0      26.0  
  6     25.0     30.0       0.0      208.0     10.0       4.0       3.0  
  7     20.0     50.0       0.0      198.0     10.0       9.0       5.0  
  8     10.0     43.0      95.0      105.0     10.0      11.0       9.0  
  9     55.0     60.0      97.0      107.0     10.0      11.0      16.0  
 10     30.0     60.0       0.0      194.0     10.0       2.0      16.0  
 11     20.0     65.0      67.0      77.0      10.0      10.0      12.0  
 12     50.0     35.0       0.0      205.0     10.0      35.0      19.0  
 13     30.0     25.0      159.0     169.0     10.0      42.0      23.0  
 14     15.0     10.0       0.0      187.0     10.0      13.0      20.0  
 15     30.0      5.0      61.0      71.0      10.0       1.0       8.0  
 16     10.0     20.0       0.0      190.0     10.0      22.0      19.0  
 17      5.0     30.0       0.0      189.0     10.0       1.0       2.0  
 18     20.0     40.0       0.0      204.0     10.0       6.0      12.0  
 19     15.0     60.0       0.0      187.0     10.0      24.0      17.0  
 20     45.0     65.0       0.0      188.0     10.0      10.0       9.0  
 21     45.0     20.0       0.0      201.0     10.0      14.0      11.0  
 22     45.0     10.0       0.0      193.0     10.0      17.0      18.0  
 23     55.0      5.0      68.0      78.0      10.0      42.0      29.0  
 24     65.0     35.0       0.0      190.0     10.0       5.0       3.0  
 25     65.0     20.0      172.0     182.0     10.0       6.0       6.0  
 26     45.0     30.0       0.0      208.0     10.0      20.0      17.0  
 27     35.0     40.0       0.0      215.0     10.0       3.0      16.0  
 28     41.0     37.0       0.0      213.0     10.0       0.0      16.0  
 29     64.0     42.0       0.0      190.0     10.0      17.0       9.0  
 30     40.0     60.0       0.0      194.0     10.0      22.0      21.0  
 31     31.0     52.0       0.0      202.0     10.0      34.0      27.0  
 32     35.0     69.0       0.0      186.0     10.0      37.0      23.0  
 33     53.0     52.0       0.0      195.0     10.0      15.0      11.0  
 34     65.0     55.0       0.0      183.0     10.0       9.0      14.0  
 35     63.0     65.0       0.0      178.0     10.0       7.0       8.0  
 36      2.0     60.0       0.0      178.0     10.0       6.0       5.0  
 37     20.0     20.0       0.0      198.0     10.0       8.0       8.0  
 38      5.0      5.0      83.0      93.0      10.0       9.0      16.0  
 39     60.0     12.0       0.0      186.0     10.0      32.0      31.0  
 40     40.0     25.0       0.0      208.0     10.0      13.0       9.0  
 41     42.0      7.0       0.0      191.0     10.0       9.0       5.0  
 42     24.0     12.0       0.0      194.0     10.0       7.0       5.0  
 43     23.0      3.0       0.0      185.0     10.0       7.0       7.0  
 44     11.0     14.0      69.0      79.0      10.0       8.0      18.0  
 45      6.0     38.0       0.0      190.0     10.0      14.0      16.0  
 46      2.0     48.0       0.0      184.0     10.0       2.0       1.0  
 47      8.0     56.0       0.0      185.0     10.0      32.0      27.0  
 48     13.0     52.0       0.0      192.0     10.0       9.0      36.0  
 49      6.0     68.0       0.0      176.0     10.0      18.0      30.0  
 50     47.0     47.0       0.0      203.0     10.0      20.0      13.0  
 51     49.0     58.0       0.0      193.0     10.0       8.0      10.0  
 52     27.0     43.0       0.0      208.0     10.0      13.0       9.0  
 53     37.0     31.0      95.0      105.0     10.0       9.0      14.0  
 54     57.0     29.0       0.0      197.0     10.0      13.0      18.0  
 55     63.0     23.0      136.0     146.0     10.0       1.0       2.0  
 56     53.0     12.0       0.0      190.0     10.0       5.0       6.0  
 57     32.0     12.0       0.0      196.0     10.0      11.0       7.0  
 58     36.0     26.0      200.0     210.0     10.0      18.0      18.0  
 59     21.0     24.0       0.0      202.0     10.0      26.0      28.0  
 60     17.0     34.0       0.0      201.0     10.0       5.0       3.0  
 61     12.0     24.0       0.0      194.0     10.0      16.0      13.0  
 62     24.0     58.0      58.0      68.0      10.0      20.0      19.0  
 63     27.0     69.0       0.0      185.0     10.0       8.0      10.0  
 64     15.0     77.0       0.0      173.0     10.0       9.0       9.0  
 65     62.0     77.0       0.0      170.0     10.0       3.0      20.0  
 66     49.0     73.0       0.0      179.0     10.0      27.0      25.0  
 67     67.0      5.0      83.0      93.0      10.0      38.0      25.0  
 68     56.0     39.0       0.0      198.0     10.0      26.0      36.0  
 69     37.0     47.0      50.0      60.0      10.0       2.0       6.0  
 70     37.0     56.0       0.0      198.0     10.0       7.0       5.0  
 71     57.0     68.0       0.0      180.0     10.0      25.0      15.0  
 72     47.0     16.0       0.0      197.0     10.0      27.0      25.0  
 73     44.0     17.0       0.0      199.0     10.0      16.0       9.0  
 74     46.0     13.0      149.0     159.0     10.0       6.0       8.0  
 75     49.0     11.0       0.0      192.0     10.0      17.0      18.0  
 76     49.0     42.0      73.0      83.0      10.0      20.0      13.0  
 77     53.0     43.0      179.0     189.0     10.0       4.0      14.0  
 78     61.0     52.0       0.0      188.0     10.0       6.0       3.0  
 79     57.0     48.0      92.0      102.0     10.0      31.0      23.0  
 80     56.0     37.0       0.0      198.0     10.0       6.0       6.0  
 81     55.0     54.0       0.0      192.0     10.0       0.0      26.0  
 82     15.0     47.0       0.0      196.0     10.0       0.0      16.0  
 83     14.0     37.0       0.0      198.0     10.0      18.0      11.0  
 84     11.0     31.0      101.0     111.0     10.0       9.0       7.0  
 85     16.0     22.0       0.0      196.0     10.0      49.0      41.0  
 86      4.0     18.0       0.0      184.0     10.0      61.0      35.0  
 87     28.0     18.0      93.0      103.0     10.0       9.0      26.0  
 88     26.0     52.0       0.0      200.0     10.0      16.0       9.0  
 89     26.0     35.0       0.0      211.0     10.0      23.0      15.0  
 90     31.0     67.0       0.0      187.0     10.0       6.0       3.0  
 91     15.0     19.0       0.0      194.0     10.0       1.0       1.0  
 92     22.0     22.0      18.0      28.0      10.0       0.0       2.0  
 93     18.0     24.0       0.0      199.0     10.0       1.0      22.0  
 94     26.0     27.0       0.0      207.0     10.0      46.0      27.0  
 95     25.0     24.0       0.0      205.0     10.0       6.0      20.0  
 96     22.0     27.0       0.0      204.0     10.0      21.0      11.0  
 97     25.0     21.0       0.0      202.0     10.0      10.0      12.0  
 98     19.0     21.0       0.0      198.0     10.0       8.0      10.0  
 99     20.0     26.0      83.0      93.0      10.0       9.0       9.0  
 100    18.0     18.0      185.0     195.0     10.0      30.0      17.0  
